WARNING: for repeatability, setting FPU to use double precision
============================[ Problem Statistics ]=============================
|                                                                             |
|  Number of variables:           100                                         |
|  Number of clauses:             449                                         |
|  Parse time:                   0.00 s                                       |
|  Eliminated clauses:           0.00 Mb                                      |
|  Simplification time:          0.00 s                                       |
|                                                                             |
============================[ Search Statistics ]==============================
| Conflicts |          ORIGINAL         |          LEARNT          | Progress |
|           |    Vars  Clauses Literals |    Limit  Clauses Lit/Cl |          |
===============================================================================
|       100 |      96      440     1349 |      161      100      7 |  0.010 % |
===============================================================================
restarts              : 2
conflicts             : 183            (62908 /sec)
decisions             : 231            (0.00 % random) (79409 /sec)
propagations          : 4318           (1484359 /sec)
conflict literals     : 1173           (17.86 % deleted)
Memory used           : 13.00 MB
CPU time              : 0.002909 s

SATISFIABLE
